c Random 3-CNF over 20 variables and 42 clauses
c Generated with `cnfgen`
c (C) 2012-2018 Massimo Lauria <lauria.massimo@gmail.com>
c https://massimolauria.github.io/cnfgen
c
c COMMAND LINE: cnfgen randkcnf 3 20 42
c
p cnf 20 42
-4 13 -20 0
9 13 16 0
-1 7 -12 0
-3 12 -15 0
1 4 -12 0
1 7 9 0
-5 6 8 0
-2 3 -11 0
2 -14 -17 0
-11 -15 18 0
-9 -10 -14 0
6 -11 -16 0
-10 -12 -16 0
17 -18 -19 0
4 -16 -18 0
-10 14 19 0
-1 12 19 0
-2 16 -19 0
7 -9 17 0
1 5 -6 0
15 -17 -20 0
1 -8 -12 0
1 -18 -20 0
-1 5 10 0
-8 -11 -17 0
6 9 11 0
5 9 14 0
7 -15 -19 0
9 10 -14 0
-2 -10 -13 0
-3 4 9 0
-4 9 11 0
-3 -17 -20 0
6 7 11 0
-5 8 17 0
4 7 20 0
-5 -8 -16 0
-4 -13 -19 0
6 15 19 0
12 13 -19 0
-3 12 -14 0
1 3 -19 0
